c --- [ banner ] -------------------------------------------------------------
c 
c CaDiCaL SAT Solver
c Copyright (c) 2016-2023 A. Biere, M. Fleury, N. Froleyks, K. Fazekas, F. Pollitt
c 
c Version 1.9.5
c g++ (Ubuntu 11.4.0-1ubuntu1~22.04) 11.4.0 -Wall -Wextra -O3 -DNDEBUG -static
c Thu Mar 7 06:16:21 CET 2024 Linux pc101447 6.5.0-17-generic x86_64
c 
c --- [ limit ] --------------------------------------------------------------
c 
c setting time limit to 3600 seconds real time (due to '-t 3600')
c 
c --- [ parsing input ] ------------------------------------------------------
c 
c reading DIMACS file from '/home/oliveras/SAT-comp-2023//8fcc57f6c75cb2ac48d19e3038ad3c6c-asconhashv12_opt64_H6_M2-4XKSMr_m1_3_U25.c.cnf'
c opening file to read '/home/oliveras/SAT-comp-2023//8fcc57f6c75cb2ac48d19e3038ad3c6c-asconhashv12_opt64_H6_M2-4XKSMr_m1_3_U25.c.cnf'
c found 'p cnf 127069 297372' header
c parsed 297372 clauses in 0.19 seconds process time
c 
c --- [ options ] ------------------------------------------------------------
c 
c   --seed=1                       (different from default '0')
c 
c --- [ solving ] ------------------------------------------------------------
c 
c time measured in process time since initialization
c 
c  seconds  reductions  redundant  irredundant
c         MB    restarts       trail       variables
c          level   conflicts       glue         remaining
c 
c *  0.19 51  0 0   0    0    0  0% 0 296657 77081 61%
c {  0.20 53  0 0   0    0    0  0% 0 296657 77081 61%
c i  0.20 53  1 0   0    1    0  2% 0 296657 77071 61%
c -  0.24 53 31353 1   1  302  280 27% 31 293283 77071 61%
c }  0.29 55 32071 1   5 1001  910 28% 19 293283 77071 61%
c [  0.29 55  0 1   5 1001  910  0% 0 293283 77071 61%
c O  0.30 55 315 1   5 1002  911 15% 15 293283 77071 61%
c -  0.98 69 312 2   5 1182  743 15% 11 293283 77071 61%
c -  5.32 63 210 3   6 2503  412 21% 10 293283 77071 61%
c ]  6.91 63 160 3   6 3002  678 21% 10 293283 77071 61%
c {  6.91 63 32071 3   6 3002  678 46% 19 293283 77071 61%
c F  6.91 63 32039 3   6 3003  679 46% 19 293283 77071 61%
c i  6.93 63 24687 3  10 3303  946 36% 17 293283 77069 61%
c s  7.03 74 17214 3  19 3889 1410 26% 16 293242 77069 61%
c v  7.20 74 17214 3  19 3889 1410 26% 16 292998 77066 61%
c w  7.23 74 17214 3  19 3889 1405 26% 16 292998 77066 61%
c t  7.23 74 17214 3  19 3889 1402 26% 16 292980 77063 61%
c e  7.60 74 17214 3  19 3889  175 26% 16 271966 46045 36%
c s  7.70 75 17214 3  19 3889  173 26% 16 271637 46045 36%
c e  7.75 75 17214 3  19 3889  167 26% 16 271606 45975 36%
c 
c  seconds     reductions  redundant   irredundant
c         MB       restarts       trail        variables
c            level    conflicts       glue          remaining
c 
c -  7.86 79 14483 4  27 4263  463 22% 15 271606 45975 36%
c 3  7.95 79 11020 4  56 5001 25619 17% 14 271602 45974 36%
c 3  7.97 79 11020 4  56 5001 26428 17% 14 271602 45974 36%
c d  8.02 79 11020 4  56 5001 26130 17% 14 271602 45944 36%
c 2  8.04 79 11020 4  56 5001 26129 17% 14 271602 45944 36%
c p  8.04 79 11020 4  56 5001 26191 17% 14 271602 45944 36%
c #  8.08 79 8316 4  96 6004 27094 13% 14 271602 45944 36%
c -  8.20 79 7567 5 114 6413 2559  3% 14 271602 45944 36%
c }  8.22 79 6687 5 147 7002 3104  3% 14 271602 45944 36%
c [  8.22 79 160 5 147 7002 3104 36% 10 271602 45944 36%
c - 13.26 79 88 6 148 8994 3149 27% 10 271602 45944 36%
c I 15.76 79 71 6 149 10005 3308 26% 10 271602 45944 36%
c - 20.74 79 53 7 151 12006 1809 25% 10 271602 45944 36%
c s 26.13 79 43 7 152 14140 1830 24% 9 271397 45944 36%
c v 26.43 79 43 7 152 14140 1830 24% 9 271111 45944 36%
c w 26.46 79 43 7 152 14140 1826 24% 9 271111 45944 36%
c e 26.51 79 43 7 152 14140 1825 24% 9 271038 45874 36%
c s 26.51 79 43 7 152 14140 1821 24% 9 271032 45874 36%
c ] 28.68 79 39 7 152 15002 1850 24% 9 271032 45874 36%
c { 28.68 79 6687 7 152 15002 1850  3% 14 271032 45874 36%
c 
c  seconds    reductions   redundant   irredundant
c         MB      restarts        trail        variables
c           level     conflicts       glue          remaining
c 
c 3 28.71 79 6687 7 152 15002 3151  3% 14 271031 45874 36%
c p 28.76 79 6687 7 152 15002 3783  3% 14 271031 45874 36%
c B 28.77 79 6680 7 152 15007 3787  3% 14 271031 45874 36%
c - 28.82 79 6146 8 175 15450 1650  3% 14 271031 45874 36%
c - 28.98 90 3648 9 521 19319 4853  3% 14 271031 45874 36%
c W 29.21 90 3105 9 736 21008 6382  3% 14 271031 45874 36%
c - 29.38 90 2535 10 1103 23619 7436  3% 15 271031 45874 36%
c F 29.66 90 1943 10 1880 28011 11363  3% 15 271031 45874 36%
c i 29.66 90 1941 10 1883 28030 11373  3% 15 271031 45873 36%
c - 29.72 90 1910 11 1952 28347 9761  3% 16 271021 45873 36%
c s 29.83 90 1802 11 2220 29517 10498  3% 16 271019 45873 36%
c v 30.00 90 1802 11 2220 29517 10498  3% 16 271017 45873 36%
c w 30.03 90 1802 11 2220 29517 10475  3% 16 271017 45873 36%
c e 30.08 90 1802 11 2220 29517 10108  3% 16 271005 45866 36%
c s 30.09 90 1802 11 2220 29517 10056  3% 16 270998 45866 36%
c i 30.16 90 1791 11 2253 29637 10166  3% 16 270998 45862 36%
c i 30.16 90 1791 11 2253 29638 10166  3% 16 270998 45813 36%
c 3 30.22 90 1761 11 2320 30003 12248  3% 16 270998 45813 36%
c p 30.26 90 1761 11 2320 30003 12309  3% 16 270998 45813 36%
c } 30.36 90 1682 11 2537 31002 13215  3% 16 270998 45813 36%
c 
c  seconds  reductions      redundant  irredundant
c         MB     restarts          trail       variables
c          level      conflicts        glue         remaining
c 
c [ 30.36 90 39 11 2537 31002 13215 24% 9 270998 45813 36%
c - 36.49 90 83 12 2538 33506 9333 24% 9 270530 45813 36%
c B 42.70 90 70 12 2540 36013 9429 24% 9 270530 45813 36%
c - 50.51 90 59 13 2542 39092 6568 24% 9 270530 45813 36%
c W 65.89 90 45 13 2544 45015 6757 23% 8 270530 45813 36%
c - 66.16 90 45 14 2544 45108 4579 23% 8 270530 45813 36%
c 3 78.89 90 38 14 2545 50004 5438 23% 8 270530 45813 36%
c 3 78.90 90 38 14 2545 50004 5634 23% 8 270530 45813 36%
c p 78.95 90 38 14 2545 50004 5698 23% 8 270530 45813 36%
c s 79.02 90 38 14 2545 50020 5299 23% 8 270469 45813 36%
c v 79.32 90 38 14 2545 50020 5299 23% 8 270334 45813 36%
c w 79.36 90 38 14 2545 50020 5297 23% 8 270334 45813 36%
c t 79.37 90 38 14 2545 50020 5297 23% 8 270332 45813 36%
c e 79.41 90 38 14 2545 50020 5156 23% 8 270136 45703 36%
c s 79.42 90 38 14 2545 50020 4945 23% 8 270086 45703 36%
c e 79.46 90 38 14 2545 50020 4927 23% 8 269972 45628 36%
c - 83.40 90 36 15 2545 51552 3934 23% 8 269972 45628 36%
c O 92.08 90 32 15 2547 55017 4044 23% 8 269972 45628 36%
c - 100.64 90 30 16 2549 58422 3864 23% 8 269972 45628 36%
c ] 112.25 90 27 16 2552 63002 4009 23% 8 269972 45628 36%
c 
c  seconds     reductions     redundant   irredundant
c          MB       restarts         trail        variables
c            level       conflicts       glue          remaining
c 
c { 112.25 90 1682 16 2552 63002 4009  3% 16 269972 45628 36%
c - 112.40 90 1501 17 2879 65722 6252  3% 16 269971 45628 36%
c B 112.41 90 1484 17 2923 66018 6525  3% 16 269971 45628 36%
c - 112.84 102 1160 18 3949 73451 11984  3% 17 269971 45628 36%
c 3 112.96 102 1111 18 4167 75004 14449  3% 17 269971 45628 36%
c 3 112.97 102 1111 18 4167 75004 14706  3% 17 269971 45628 36%
c p 113.01 102 1111 18 4167 75004 14787  3% 17 269971 45628 36%
c d 113.03 102 1111 18 4167 75004 14769  3% 17 269969 45627 36%
c s 113.10 102 1091 18 4256 75670 14556  3% 17 269896 45627 36%
c v 113.39 102 1091 18 4256 75670 14556  3% 17 269772 45627 36%
c w 113.47 102 1091 18 4256 75670 14544  3% 17 269772 45627 36%
c t 113.47 102 1091 18 4256 75670 14543  3% 17 269770 45627 36%
c e 113.51 102 1091 18 4256 75670 12685  3% 17 269643 45563 36%
c s 113.53 102 1091 18 4256 75670 12584  3% 17 269641 45563 36%
c W 114.30 102 1027 18 4696 78020 14701  3% 17 269641 45563 36%
c - 114.62 90 945 19 5341 81609 14906  3% 18 269641 45563 36%
c - 115.30 90 794 20 6954 90193 17977  3% 19 269641 45563 36%
c # 115.36 90 782 20 7092 91022 18723  3% 19 269641 45563 36%
c - 116.02 102 692 21 8353 99206 20811  3% 19 269641 45563 36%
c 3 116.59 102 639 21 9555 105004 27088  3% 20 269641 45563 36%
c 
c  seconds     reductions       redundant   irredundant
c           MB      restarts           trail        variables
c             level      conflicts         glue          remaining
c 
c p 116.65 102 639 21 9555 105004 27484  3% 20 269641 45562 36%
c B 116.67 102 639 21 9560 105023 27502  3% 20 269641 45562 36%
c s 116.86 102 627 21 9873 106453 28225  3% 20 269637 45562 36%
c w 117.07 102 627 21 9873 106453 28191  3% 20 269637 45562 36%
c t 117.08 102 627 21 9873 106453 28191  3% 20 269635 45562 36%
c s 117.14 102 627 21 9873 106453 28117  3% 20 269635 45562 36%
c ^ 117.17 102 627 21 9873 106453 28117  3% 20 269635 45562 36%
c - 117.38 90 611 22 10177 108650 23177  3% 20 269635 45562 36%
c - 118.45 103 554 23 12182 118522 25638  3% 21 269635 45562 36%
c W 119.37 103 546 23 12534 120024 26980  3% 21 269635 45562 36%
c } 120.13 103 511 23 14021 127003 33228  3% 21 269635 45562 36%
c [ 120.13 103 27 23 14021 127003 33228 23% 8 269635 45562 36%
c - 124.83 90 40 24 14021 128823 26056 23% 8 269635 45562 36%
c B 143.61 90 42 24 14026 136026 26286 23% 8 269635 45562 36%
c - 152.82 90 40 25 14028 139553 17620 23% 8 269635 45562 36%
c 3 154.00 90 39 25 14028 140005 18906 23% 8 269635 45562 36%
c p 154.06 91 39 25 14028 140005 19494 23% 8 269635 45561 36%
c d 154.08 91 39 25 14028 140005 19480 23% 8 269622 45558 36%
c d 154.09 91 39 25 14028 140005 19480 23% 8 269620 45557 36%
c s 160.04 91 38 25 14029 142365 19190 23% 8 269604 45557 36%
c 
c  seconds   reductions        redundant  irredundant
c          MB      restarts           trail       variables
c           level       conflicts         glue         remaining
c 
c v 160.34 91 38 25 14029 142365 19190 23% 8 269570 45557 36%
c w 160.44 91 38 25 14029 142365 19156 23% 8 269570 45557 36%
c t 160.45 91 38 25 14029 142365 19151 23% 8 269565 45557 36%
c e 160.63 91 38 25 14029 142365 19088 23% 8 269564 45542 36%
c s 160.65 91 38 25 14029 142365 19024 23% 8 269558 45542 36%
c e 160.69 91 38 25 14029 142365 18632 23% 8 269548 45538 36%
c - 181.68 91 33 26 14030 150713 11831 23% 8 269548 45538 36%
c i 184.42 91 32 26 14030 151789 11869 23% 8 269548 45528 36%
c W 188.54 91 31 26 14030 153028 11584 23% 8 269154 45528 36%
c i 190.59 91 31 26 14030 153837 11607 23% 8 269154 45522 36%
c i 193.18 91 31 26 14030 154861 11643 23% 8 269154 45517 36%
c i 194.47 91 30 26 14030 155373 11663 23% 8 269154 45504 36%
c i 195.11 91 30 26 14030 155629 11675 23% 8 269154 45482 36%
c i 195.43 91 30 26 14030 155757 11683 23% 8 269154 45442 36%
c i 195.59 91 30 26 14030 155821 11689 23% 8 269154 45387 36%
c i 195.67 91 30 26 14030 155853 11694 23% 8 269154 45338 36%
c i 195.71 91 30 26 14030 155869 11698 23% 8 269154 45252 36%
c i 195.73 91 30 26 14030 155877 11701 23% 8 269154 45174 36%
c i 195.74 91 30 26 14030 155881 11703 23% 8 269154 45088 35%
c i 195.75 91 30 26 14030 155883 11704 23% 8 269154 44677 35%
c 
c  seconds   reductions        redundant  irredundant
c          MB      restarts           trail       variables
c           level       conflicts         glue         remaining
c 
c ] 195.75 91 30 26 14030 155885 11704 23% 8 269154 35254 28%
c 0 195.75 91 30 26 14030 155885 11704 23% 8 269154 35254 28%
c 
c --- [ result ] -------------------------------------------------------------
c 
s UNSATISFIABLE
c 
c --- [ run-time profiling ] -------------------------------------------------
c 
c process time taken by individual solving procedures
c (percentage relative to process time for solving)
c 
c       191.50   97.92% search
c       181.37   92.75% stable
c         7.14    3.65% unstable
c         4.06    2.08% simplify
c         2.98    1.52% walk
c         1.88    0.96% vivify
c         0.98    0.50% elim
c         0.38    0.19% subsume
c         0.34    0.17% ternary
c         0.19    0.10% parse
c         0.04    0.02% probe
c         0.01    0.00% lucky
c   =================================
c       195.56   99.90% solve
c 
c last line shows process time for solving
c (percentage relative to total process time)
c 
c --- [ statistics ] ---------------------------------------------------------
c 
c chronological:             41733        26.77 %  of conflicts
c conflicts:                155885       797.13    per second
c decisions:               3702026     18930.64    per second
c eliminated:                31419        24.73 %  of all variables
c fixed:                     12336         9.71 %  of all variables
c learned:                  147949        94.91 %  per conflict
c learned_lits:           26795604       100.00 %  learned literals
c minimized:                     0         0.00 %  learned literals
c shrunken:               23356548        87.17 %  learned literals
c minishrunken:             414503         1.55 %  learned literals
c otfs:                       8091         5.19 %  of conflict
c propagations:          734143173         3.75 M  per second
c reduced:                   61334        39.35 %  per conflict
c rephased:                     17      9169.71    interval
c restarts:                  14030        11.11    interval
c stabilizing:                   4        45.47 %  of conflicts
c substituted:                  37         0.03 %  of all variables
c subsumed:                  74049        10.63 %  of all clauses
c strengthened:              13751         1.97 %  of all clauses
c ternary:                   34927         1.44 %  of resolved
c trail reuses:                  0         0.00 %  of incremental calls
c vivified:                   2566         0.37 %  of all clauses
c walked:                        5     31177.00    interval
c weakened:                 110028         2.73    average size
c 
c seconds are measured in process time for solving
c 
c --- [ resources ] ----------------------------------------------------------
c 
c total process time since initialization:       195.75    seconds
c total real time since initialization:          195.74    seconds
c maximum resident set size of process:          102.75    MB
c 
c --- [ shutting down ] ------------------------------------------------------
c 
c exit 20
